problems/csplib-prob110/ArmiesOfQueens-models/noch/O2/lingeling/model_2_2-06-solution000001.solution
language Essence 1.3

letting black be {}
letting white be {}
